c
c Renamed file of count.cnf 
c Variables are renamed according to left2right.ord 
c
c Date: Thu Apr 29 14:49:16 PDT 2004 by (jinbo)
c Host: Linux solution 2.4.18-4smp #1 SMP Thu May 2 18:32:34 EDT 2002 i686 unknown
c
c Copyright (c) 2001 Fadi A. Aloul.
c
p cnf 185 425
55 -27 0
27 -55 0
-27 26 0
-29 -28 0
-60 -28 0
28 29 60 0
-28 26 0
60 -25 0
-5 -25 0
25 -60 5 0
-25 26 0
-26 27 28 25 0
55 -22 0
22 -55 0
-22 21 0
-24 -23 0
-60 -23 0
23 24 60 0
-23 21 0
60 -20 0
-11 -20 0
20 -60 11 0
-20 21 0
-21 22 23 20 0
55 -34 0
34 -55 0
-34 31 0
-33 -32 0
-60 -32 0
32 33 60 0
-32 31 0
60 -30 0
-18 -30 0
30 -60 18 0
-30 31 0
-31 34 32 30 0
55 -62 0
62 -55 0
-62 65 0
-63 -64 0
-60 -64 0
64 63 60 0
-64 65 0
60 -66 0
-102 -66 0
66 -60 102 0
-66 65 0
-65 62 64 66 0
55 -92 0
92 -55 0
-92 95 0
-94 -93 0
-60 -93 0
93 94 60 0
-93 95 0
60 -96 0
-109 -96 0
96 -60 109 0
-96 95 0
-95 92 93 96 0
55 -69 0
69 -55 0
-69 70 0
-67 -68 0
-60 -68 0
68 67 60 0
-68 70 0
60 -71 0
-115 -71 0
71 -60 115 0
-71 70 0
-70 69 68 71 0
55 -97 0
97 -55 0
-97 100 0
-99 -98 0
-60 -98 0
98 99 60 0
-98 100 0
60 -101 0
-122 -101 0
101 -60 122 0
-101 100 0
-100 97 98 101 0
55 -48 0
48 -55 0
-48 47 0
-45 -46 0
-60 -46 0
46 45 60 0
-46 47 0
60 -49 0
-152 -49 0
49 -60 152 0
-49 47 0
-47 48 46 49 0
55 -38 0
38 -55 0
-38 37 0
-35 -36 0
-60 -36 0
36 35 60 0
-36 37 0
60 -39 0
-160 -39 0
39 -60 160 0
-39 37 0
-37 38 36 39 0
55 -53 0
53 -55 0
-53 52 0
-50 -51 0
-60 -51 0
51 50 60 0
-51 52 0
60 -54 0
-159 -54 0
54 -60 159 0
-54 52 0
-52 53 51 54 0
55 -84 0
84 -55 0
-84 85 0
-82 -83 0
-60 -83 0
83 82 60 0
-83 85 0
60 -86 0
-172 -86 0
86 -60 172 0
-86 85 0
-85 84 83 86 0
55 -77 0
77 -55 0
-77 80 0
-78 -79 0
-60 -79 0
79 78 60 0
-79 80 0
60 -81 0
-183 -81 0
81 -60 183 0
-81 80 0
-80 77 79 81 0
55 -72 0
72 -55 0
-72 75 0
-73 -74 0
-60 -74 0
74 73 60 0
-74 75 0
60 -76 0
-146 -76 0
76 -60 146 0
-76 75 0
-75 72 74 76 0
55 -89 0
89 -55 0
-89 90 0
-87 -88 0
-60 -88 0
88 87 60 0
-88 90 0
60 -91 0
-141 -91 0
91 -60 141 0
-91 90 0
-90 89 88 91 0
55 -43 0
43 -55 0
-43 42 0
-40 -41 0
-60 -41 0
41 40 60 0
-41 42 0
60 -44 0
-134 -44 0
44 -60 134 0
-44 42 0
-42 43 41 44 0
55 -56 0
56 -55 0
-56 57 0
-61 -58 0
-60 -58 0
58 61 60 0
-58 57 0
60 -59 0
-128 -59 0
59 -60 128 0
-59 57 0
-57 56 58 59 0
-3 -6 0
-2 -6 0
6 3 2 0
-6 7 0
-7 6 0
-7 -13 0
13 7 0
-13 14 0
10 -12 0
12 -10 0
-12 14 0
-14 13 12 0
-16 -19 0
-14 -19 0
19 16 14 0
-19 104 0
-104 19 0
106 -108 0
108 -106 0
-108 111 0
-104 -107 0
107 104 0
-107 111 0
-111 108 107 0
-2 -4 0
3 -4 0
4 2 -3 0
-4 5 0
2 -1 0
-3 -1 0
1 -2 3 0
-1 5 0
-5 4 1 0
10 -8 0
7 -8 0
8 -10 -7 0
-8 11 0
-10 -9 0
-7 -9 0
9 10 7 0
-9 11 0
-11 8 9 0
-16 -15 0
14 -15 0
15 16 -14 0
-15 18 0
16 -17 0
-14 -17 0
17 -16 14 0
-17 18 0
-18 15 17 0
106 -103 0
104 -103 0
103 -106 -104 0
-103 102 0
-106 -105 0
-104 -105 0
105 106 104 0
-105 102 0
-102 103 105 0
-113 -114 0
-111 -114 0
114 113 111 0
-114 118 0
-118 114 0
119 -121 0
121 -119 0
-121 124 0
-118 -120 0
120 118 0
-120 124 0
-124 121 120 0
-126 -127 0
-124 -127 0
127 126 124 0
-127 155 0
-155 127 0
156 -158 0
158 -156 0
-158 162 0
-155 -157 0
157 155 0
-157 162 0
-162 158 157 0
-113 -112 0
111 -112 0
112 113 -111 0
-112 109 0
113 -110 0
-111 -110 0
110 -113 111 0
-110 109 0
-109 112 110 0
119 -117 0
118 -117 0
117 -119 -118 0
-117 115 0
-119 -116 0
-118 -116 0
116 119 118 0
-116 115 0
-115 117 116 0
-126 -123 0
124 -123 0
123 126 -124 0
-123 122 0
126 -125 0
-124 -125 0
125 -126 124 0
-125 122 0
-122 123 125 0
156 -154 0
155 -154 0
154 -156 -155 0
-154 152 0
-156 -153 0
-155 -153 0
153 156 155 0
-153 152 0
-152 154 153 0
-164 -165 0
-162 -165 0
165 164 162 0
-165 168 0
-168 165 0
169 -171 0
171 -169 0
-171 174 0
-168 -170 0
170 168 0
-170 174 0
-174 171 170 0
-176 -177 0
-174 -177 0
177 176 174 0
-177 180 0
-180 177 0
181 -179 0
179 -181 0
-179 151 0
-180 -178 0
178 180 0
-178 151 0
-151 179 178 0
-164 -161 0
162 -161 0
161 164 -162 0
-161 160 0
164 -163 0
-162 -163 0
163 -164 162 0
-163 160 0
-160 161 163 0
169 -167 0
168 -167 0
167 -169 -168 0
-167 159 0
-169 -166 0
-168 -166 0
166 169 168 0
-166 159 0
-159 167 166 0
-176 -175 0
174 -175 0
175 176 -174 0
-175 172 0
176 -173 0
-174 -173 0
173 -176 174 0
-173 172 0
-172 175 173 0
181 -182 0
180 -182 0
182 -181 -180 0
-182 183 0
-181 -184 0
-180 -184 0
184 181 180 0
-184 183 0
-183 182 184 0
-149 -147 0
-151 -147 0
147 149 151 0
-147 145 0
-145 147 0
142 -140 0
140 -142 0
-140 138 0
-145 -139 0
139 145 0
-139 138 0
-138 140 139 0
-136 -133 0
-138 -133 0
133 136 138 0
-133 132 0
-132 133 0
-149 -148 0
151 -148 0
148 149 -151 0
-148 146 0
149 -150 0
-151 -150 0
150 -149 151 0
-150 146 0
-146 148 150 0
142 -143 0
145 -143 0
143 -142 -145 0
-143 141 0
-142 -144 0
-145 -144 0
144 142 145 0
-144 141 0
-141 143 144 0
-136 -135 0
138 -135 0
135 136 -138 0
-135 134 0
136 -137 0
-138 -137 0
137 -136 138 0
-137 134 0
-134 135 137 0
131 -130 0
132 -130 0
130 -131 -132 0
-130 128 0
-131 -129 0
-132 -129 0
129 131 132 0
-129 128 0
-128 130 129 0
